WARNING: for repeatability, setting FPU to use double precision
============================[ Problem Statistics ]=============================
|                                                                             |
|  Number of variables:            50                                         |
|  Number of clauses:             218                                         |
|  Parse time:                   0.00 s                                       |
|                                                                             |
============================[ Search Statistics ]==============================
| Conflicts |          ORIGINAL         |          LEARNT          | Progress |
|           |    Vars  Clauses Literals |    Limit  Clauses Lit/Cl |          |
===============================================================================
===============================================================================
restarts              : 1
conflicts             : 10             (7278 /sec)
decisions             : 20             (0.00 % random) (14556 /sec)
propagations          : 231            (168122 /sec)
conflict literals     : 50             (12.28 % deleted)
Memory used           : 20.00 MB
CPU time              : 0.001374 s

SATISFIABLE
